sat
(:added-eqs                   1809511
 :arith-eq-adapter            3986
 :arith-assume-eqs            2
 :arith-bound-propagations-lp 72122
 :arith-conflicts             202
 :arith-diseq                 81706
 :arith-fixed-eqs             52756
 :arith-lower                 92281
 :arith-make-feasible         41858
 :arith-max-columns           1905
 :arith-max-rows              927
 :arith-offset-eqs            24046
 :arith-upper                 113833
 :binary-propagations         6182702
 :conflicts                   16559
 :decisions                   1400459
 :del-clause                  12307
 :elim-unconstrained          2
 :final-checks                2
 :interface-eqs               1
 :max-memory                  52.07
 :memory                      34.02
 :minimized-lits              66119
 :mk-bool-var                 23409
 :mk-clause                   25346
 :mk-clause-binary            17770
 :num-allocs                  382766804
 :num-checks                  1
 :propagations                7973731
 :restarts                    104
 :rlimit-count                32647263
 :time                        47.31
 :total-time                  47.78)
